Maximize
  x_basketballs + x_footballs
Subject To
  c1: 5 x_basketballs + 3 x_footballs <= 1500
  c2: 2 x_footballs + 1 x_basketballs <= 750
  c3: x_basketballs - 3.0 x_footballs >= 0
  c4: x_footballs >= 50
Integer
  x_basketballs x_footballs
End